
   9    2
   3    3

   0   0   0   2 2 4 
   2   1   1   1 3 
   2   0   2   2 6 5 
   2   1   1   2 6 5 
   2   0   2   1 7 
   2   0   2   1 7 
   2   2   0   1 8 
   2   2   0   1 9
   0   0   0   0 
